%mem=2GB
%nproc=2
# HF/6-31G
!

Structure: 3

  0  1
  H     2.133000   0.780000   1.076000
  C     1.107000   1.059000   1.076000
  H     0.985000   2.027000   0.570000
  H     0.685000   1.084000   2.043000
  C     0.358000   0.023000   0.186000
  O    -0.834000   0.251000  -0.033000
  N     1.018000  -1.048000  -0.304000
  H     1.982000  -1.196000  -0.012000
  C     0.317000  -1.991000  -1.217000
  H     0.332000  -1.537000  -2.248000
  H     0.802000  -3.017000  -1.300000
  H    -0.638000  -2.173000  -0.764000

