%mem=2GB
%nproc=2
# HF/6-31G
!

Structure: 2

  0  1
  H     0.828000   0.914000   2.104000
  C     1.144000   0.973000   1.036000
  H     2.180000   0.680000   0.969000
  H     1.079000   1.991000   0.623000
  C     0.315000   0.051000   0.191000
  O    -0.919000   0.200000   0.067000
  N     1.044000  -0.936000  -0.421000
  H     1.999000  -1.140000  -0.098000
  C     0.381000  -1.979000  -1.188000
  H    -0.252000  -1.543000  -1.966000
  H     1.158000  -2.630000  -1.607000
  H    -0.391000  -2.513000  -0.550000

